db/inputs/2983619447268185361325044591555828958.smt2
(set-logic QF_FP)
(declare-const x0 (_ FloatingPoint 8 24))
(declare-const x1 (_ FloatingPoint 8 24))
(declare-const x2 (_ FloatingPoint 8 24))
(declare-const x3 (_ FloatingPoint 8 24))
(declare-const x4 (_ FloatingPoint 8 24))
(declare-const x5 (_ FloatingPoint 8 24))
(declare-const x6 (_ FloatingPoint 8 24))
(declare-const x7 (_ FloatingPoint 8 24))
(declare-const x8 (_ FloatingPoint 8 24))
(declare-const x9 (_ FloatingPoint 8 24))
(declare-const x10 (_ FloatingPoint 8 24))
(declare-const x11 (_ FloatingPoint 8 24))
(declare-const x12 (_ FloatingPoint 8 24))
(declare-const x13 (_ FloatingPoint 8 24))
(assert (fp.lt (fp.sub RNE (fp.neg (fp.div RNE (fp.div RNE x3 x12) (fp.div RNE x8 x7))) (fp.sub RNE (fp.mul RNE (fp.neg x1) (fp.mul RNE x11 x3)) (fp.mul RNE (fp.neg x4) (fp.sub RNE x8 x4)))) (fp.div RNE (fp.mul RNE (fp.mul RNE (fp.add RNE x12 x10) (fp.mul RNE x5 x6)) (fp.add RNE (fp.div RNE x10 x6) (fp.div RNE x11 x13))) (fp.div RNE (fp.sub RNE (fp.add RNE x1 x6) (fp.sub RNE x9 x3)) (fp.div RNE (fp.neg x1) (fp.neg x2))))))
(check-sat)
