db/data/2983619447268185361325044591555828958.z3.out
sat
-------------------
543.158665162
